2640 0
93 67
60 48
75 25
2 73
61 63
14 27
7 99
80 33
38 41
89 61
62 86
66 43
8 24
34 50
49 86
48 95
51 67
59 96
39 57
96 40
60 82
67 42
43 75
6 64
68 35
44 23
95 84
71 78
87 76
50 57
15 72
91 84
79 88
29 6
58 68
66 91
47 54
17 1
41 39
23 41
4 13
52 98
69 42
39 54
88 81
48 33
25 60
69 24
2 41
69 30
40 39
48 2
73 83
81 10
68 38
93 70
11 89
91 16
8 28
19 78
22 93
59 71
56 21
8 64
55 99
11 13
90 57
91 68
25 24
41 69
54 49
59 7
36 78
74 95
93 37
75 13
79 42
20 45
27 93
67 12
96 58
73 79
34 1
45 86
67 63
42 76
61 2
5 24
3 31
27 4
89 67
76 36
24 50
52 41
43 79
31 89
62 17
35 65
68 9
13 82